n_machines = 5;
n_resources = 6;
n_jobs = 63;
horizon = 29231;
LB = 8634;
n_jobs_per_resource = [18, 4, 8, 16, 8, 9];
duration = [263, 486, 828, 888, 194, 746, 339, 326, 785, 908, 789, 490, 643, 46, 126, 299, 409, 69, 722, 710, 109, 519, 769, 456, 864, 792, 859, 128, 364, 811, 168, 603, 123, 573, 420, 481, 194, 966, 230, 453, 422, 577, 732, 715, 113, 523, 509, 905, 537, 384, 442, 8, 198, 369, 234, 484, 293, 41, 536, 110, 765, 175, 211]